(set-logic QF_LRA)
(declare-fun T1 () Real )
(declare-fun T2 () Real )
(declare-fun T3 () Real )
(declare-fun T4 () Real )
(declare-fun T5 () Real )
(declare-fun T6 () Real )
(declare-fun T7 () Real )
(declare-fun T8 () Real )
(declare-fun T9 () Real )
(declare-fun T10 () Real )
(declare-fun Z () Real )
(assert ( and 
(or ( <= ( + T1 92 ) T2 ) ( <= ( + T2 16 ) T1 ) )
(or ( <= ( + T1 121 )  ( + T2 16 ) ) ( <= ( + T2 100 )( + T1 92 ) ) )
(or ( <= ( + T1 194 )  ( + T2 100 ) ) ( <= ( + T2 105 )( + T1 121 ) ) )
(or ( <= ( + T1 228 )  ( + T2 105 ) ) ( <= ( + T2 173 )( + T1 194 ) ) )
(or ( <= ( + T1 319 )  ( + T2 173 ) ) ( <= ( + T2 185 )( + T1 228 ) ) )
(or ( <= ( + T1 365 )  ( + T2 185 ) ) ( <= ( + T2 207 )( + T1 319 ) ) )
(or ( <= ( + T1 393 )  ( + T2 207 ) ) ( <= ( + T2 285 )( + T1 365 ) ) )
(or ( <= ( + T1 448 )  ( + T2 285 ) ) ( <= ( + T2 334 )( + T1 393 ) ) )
(or ( <= ( + T1 92 ) T3 ) ( <= ( + T3 43 ) T1 ) )
(or ( <= ( + T1 121 )  ( + T3 43 ) ) ( <= ( + T3 62 )( + T1 92 ) ) )
(or ( <= ( + T1 194 )  ( + T3 62 ) ) ( <= ( + T3 67 )( + T1 121 ) ) )
(or ( <= ( + T1 228 )  ( + T3 67 ) ) ( <= ( + T3 80 )( + T1 194 ) ) )
(or ( <= ( + T1 319 )  ( + T3 80 ) ) ( <= ( + T3 168 )( + T1 228 ) ) )
(or ( <= ( + T1 365 )  ( + T3 168 ) ) ( <= ( + T3 204 )( + T1 319 ) ) )
(or ( <= ( + T1 393 )  ( + T3 204 ) ) ( <= ( + T3 258 )( + T1 365 ) ) )
(or ( <= ( + T1 448 )  ( + T3 258 ) ) ( <= ( + T3 312 )( + T1 393 ) ) )
(or ( <= ( + T1 92 ) T4 ) ( <= ( + T4 60 ) T1 ) )
(or ( <= ( + T1 121 )  ( + T4 60 ) ) ( <= ( + T4 63 )( + T1 92 ) ) )
(or ( <= ( + T1 194 )  ( + T4 63 ) ) ( <= ( + T4 70 )( + T1 121 ) ) )
(or ( <= ( + T1 228 )  ( + T4 70 ) ) ( <= ( + T4 145 )( + T1 194 ) ) )
(or ( <= ( + T1 319 )  ( + T4 145 ) ) ( <= ( + T4 241 )( + T1 228 ) ) )
(or ( <= ( + T1 365 )  ( + T4 241 ) ) ( <= ( + T4 305 )( + T1 319 ) ) )
(or ( <= ( + T1 393 )  ( + T4 305 ) ) ( <= ( + T4 324 )( + T1 365 ) ) )
(or ( <= ( + T1 448 )  ( + T4 324 ) ) ( <= ( + T4 411 )( + T1 393 ) ) )
(or ( <= ( + T1 92 ) T5 ) ( <= ( + T5 92 ) T1 ) )
(or ( <= ( + T1 121 )  ( + T5 92 ) ) ( <= ( + T5 183 )( + T1 92 ) ) )
(or ( <= ( + T1 194 )  ( + T5 183 ) ) ( <= ( + T5 203 )( + T1 121 ) ) )
(or ( <= ( + T1 228 )  ( + T5 203 ) ) ( <= ( + T5 237 )( + T1 194 ) ) )
(or ( <= ( + T1 319 )  ( + T5 237 ) ) ( <= ( + T5 325 )( + T1 228 ) ) )
(or ( <= ( + T1 365 )  ( + T5 325 ) ) ( <= ( + T5 425 )( + T1 319 ) ) )
(or ( <= ( + T1 393 )  ( + T5 425 ) ) ( <= ( + T5 465 )( + T1 365 ) ) )
(or ( <= ( + T1 448 )  ( + T5 465 ) ) ( <= ( + T5 468 )( + T1 393 ) ) )
(or ( <= ( + T1 92 ) T6 ) ( <= ( + T6 83 ) T1 ) )
(or ( <= ( + T1 121 )  ( + T6 83 ) ) ( <= ( + T6 127 )( + T1 92 ) ) )
(or ( <= ( + T1 194 )  ( + T6 127 ) ) ( <= ( + T6 150 )( + T1 121 ) ) )
(or ( <= ( + T1 228 )  ( + T6 150 ) ) ( <= ( + T6 245 )( + T1 194 ) ) )
(or ( <= ( + T1 319 )  ( + T6 245 ) ) ( <= ( + T6 263 )( + T1 228 ) ) )
(or ( <= ( + T1 365 )  ( + T6 263 ) ) ( <= ( + T6 363 )( + T1 319 ) ) )
(or ( <= ( + T1 393 )  ( + T6 363 ) ) ( <= ( + T6 458 )( + T1 365 ) ) )
(or ( <= ( + T1 448 )  ( + T6 458 ) ) ( <= ( + T6 518 )( + T1 393 ) ) )
(or ( <= ( + T1 92 ) T7 ) ( <= ( + T7 70 ) T1 ) )
(or ( <= ( + T1 121 )  ( + T7 70 ) ) ( <= ( + T7 169 )( + T1 92 ) ) )
(or ( <= ( + T1 194 )  ( + T7 169 ) ) ( <= ( + T7 193 )( + T1 121 ) ) )
(or ( <= ( + T1 228 )  ( + T7 193 ) ) ( <= ( + T7 203 )( + T1 194 ) ) )
(or ( <= ( + T1 319 )  ( + T7 203 ) ) ( <= ( + T7 237 )( + T1 228 ) ) )
(or ( <= ( + T1 365 )  ( + T7 237 ) ) ( <= ( + T7 315 )( + T1 319 ) ) )
(or ( <= ( + T1 393 )  ( + T7 315 ) ) ( <= ( + T7 378 )( + T1 365 ) ) )
(or ( <= ( + T1 448 )  ( + T7 378 ) ) ( <= ( + T7 423 )( + T1 393 ) ) )
(or ( <= ( + T1 92 ) T8 ) ( <= ( + T8 32 ) T1 ) )
(or ( <= ( + T1 121 )  ( + T8 32 ) ) ( <= ( + T8 101 )( + T1 92 ) ) )
(or ( <= ( + T1 194 )  ( + T8 101 ) ) ( <= ( + T8 121 )( + T1 121 ) ) )
(or ( <= ( + T1 228 )  ( + T8 121 ) ) ( <= ( + T8 148 )( + T1 194 ) ) )
(or ( <= ( + T1 319 )  ( + T8 148 ) ) ( <= ( + T8 232 )( + T1 228 ) ) )
(or ( <= ( + T1 365 )  ( + T8 232 ) ) ( <= ( + T8 322 )( + T1 319 ) ) )
(or ( <= ( + T1 393 )  ( + T8 322 ) ) ( <= ( + T8 335 )( + T1 365 ) ) )
(or ( <= ( + T1 448 )  ( + T8 335 ) ) ( <= ( + T8 362 )( + T1 393 ) ) )
(or ( <= ( + T1 92 ) T9 ) ( <= ( + T9 80 ) T1 ) )
(or ( <= ( + T1 121 )  ( + T9 80 ) ) ( <= ( + T9 164 )( + T1 92 ) ) )
(or ( <= ( + T1 194 )  ( + T9 164 ) ) ( <= ( + T9 224 )( + T1 121 ) ) )
(or ( <= ( + T1 228 )  ( + T9 224 ) ) ( <= ( + T9 243 )( + T1 194 ) ) )
(or ( <= ( + T1 319 )  ( + T9 243 ) ) ( <= ( + T9 326 )( + T1 228 ) ) )
(or ( <= ( + T1 365 )  ( + T9 326 ) ) ( <= ( + T9 377 )( + T1 319 ) ) )
(or ( <= ( + T1 393 )  ( + T9 377 ) ) ( <= ( + T9 450 )( + T1 365 ) ) )
(or ( <= ( + T1 448 )  ( + T9 450 ) ) ( <= ( + T9 468 )( + T1 393 ) ) )
(or ( <= ( + T1 92 ) T10 ) ( <= ( + T10 94 ) T1 ) )
(or ( <= ( + T1 121 )  ( + T10 94 ) ) ( <= ( + T10 189 )( + T1 92 ) ) )
(or ( <= ( + T1 194 )  ( + T10 189 ) ) ( <= ( + T10 253 )( + T1 121 ) ) )
(or ( <= ( + T1 228 )  ( + T10 253 ) ) ( <= ( + T10 264 )( + T1 194 ) ) )
(or ( <= ( + T1 319 )  ( + T10 264 ) ) ( <= ( + T10 310 )( + T1 228 ) ) )
(or ( <= ( + T1 365 )  ( + T10 310 ) ) ( <= ( + T10 368 )( + T1 319 ) ) )
(or ( <= ( + T1 393 )  ( + T10 368 ) ) ( <= ( + T10 391 )( + T1 365 ) ) )
(or ( <= ( + T1 448 )  ( + T10 391 ) ) ( <= ( + T10 459 )( + T1 393 ) ) )
(or ( <= ( + T2 16 ) T3 ) ( <= ( + T3 43 ) T2 ) )
(or ( <= ( + T2 100 )  ( + T3 43 ) ) ( <= ( + T3 62 )( + T2 16 ) ) )
(or ( <= ( + T2 105 )  ( + T3 62 ) ) ( <= ( + T3 67 )( + T2 100 ) ) )
(or ( <= ( + T2 173 )  ( + T3 67 ) ) ( <= ( + T3 80 )( + T2 105 ) ) )
(or ( <= ( + T2 185 )  ( + T3 80 ) ) ( <= ( + T3 168 )( + T2 173 ) ) )
(or ( <= ( + T2 207 )  ( + T3 168 ) ) ( <= ( + T3 204 )( + T2 185 ) ) )
(or ( <= ( + T2 285 )  ( + T3 204 ) ) ( <= ( + T3 258 )( + T2 207 ) ) )
(or ( <= ( + T2 334 )  ( + T3 258 ) ) ( <= ( + T3 312 )( + T2 285 ) ) )
(or ( <= ( + T2 16 ) T4 ) ( <= ( + T4 60 ) T2 ) )
(or ( <= ( + T2 100 )  ( + T4 60 ) ) ( <= ( + T4 63 )( + T2 16 ) ) )
(or ( <= ( + T2 105 )  ( + T4 63 ) ) ( <= ( + T4 70 )( + T2 100 ) ) )
(or ( <= ( + T2 173 )  ( + T4 70 ) ) ( <= ( + T4 145 )( + T2 105 ) ) )
(or ( <= ( + T2 185 )  ( + T4 145 ) ) ( <= ( + T4 241 )( + T2 173 ) ) )
(or ( <= ( + T2 207 )  ( + T4 241 ) ) ( <= ( + T4 305 )( + T2 185 ) ) )
(or ( <= ( + T2 285 )  ( + T4 305 ) ) ( <= ( + T4 324 )( + T2 207 ) ) )
(or ( <= ( + T2 334 )  ( + T4 324 ) ) ( <= ( + T4 411 )( + T2 285 ) ) )
(or ( <= ( + T2 16 ) T5 ) ( <= ( + T5 92 ) T2 ) )
(or ( <= ( + T2 100 )  ( + T5 92 ) ) ( <= ( + T5 183 )( + T2 16 ) ) )
(or ( <= ( + T2 105 )  ( + T5 183 ) ) ( <= ( + T5 203 )( + T2 100 ) ) )
(or ( <= ( + T2 173 )  ( + T5 203 ) ) ( <= ( + T5 237 )( + T2 105 ) ) )
(or ( <= ( + T2 185 )  ( + T5 237 ) ) ( <= ( + T5 325 )( + T2 173 ) ) )
(or ( <= ( + T2 207 )  ( + T5 325 ) ) ( <= ( + T5 425 )( + T2 185 ) ) )
(or ( <= ( + T2 285 )  ( + T5 425 ) ) ( <= ( + T5 465 )( + T2 207 ) ) )
(or ( <= ( + T2 334 )  ( + T5 465 ) ) ( <= ( + T5 468 )( + T2 285 ) ) )
(or ( <= ( + T2 16 ) T6 ) ( <= ( + T6 83 ) T2 ) )
(or ( <= ( + T2 100 )  ( + T6 83 ) ) ( <= ( + T6 127 )( + T2 16 ) ) )
(or ( <= ( + T2 105 )  ( + T6 127 ) ) ( <= ( + T6 150 )( + T2 100 ) ) )
(or ( <= ( + T2 173 )  ( + T6 150 ) ) ( <= ( + T6 245 )( + T2 105 ) ) )
(or ( <= ( + T2 185 )  ( + T6 245 ) ) ( <= ( + T6 263 )( + T2 173 ) ) )
(or ( <= ( + T2 207 )  ( + T6 263 ) ) ( <= ( + T6 363 )( + T2 185 ) ) )
(or ( <= ( + T2 285 )  ( + T6 363 ) ) ( <= ( + T6 458 )( + T2 207 ) ) )
(or ( <= ( + T2 334 )  ( + T6 458 ) ) ( <= ( + T6 518 )( + T2 285 ) ) )
(or ( <= ( + T2 16 ) T7 ) ( <= ( + T7 70 ) T2 ) )
(or ( <= ( + T2 100 )  ( + T7 70 ) ) ( <= ( + T7 169 )( + T2 16 ) ) )
(or ( <= ( + T2 105 )  ( + T7 169 ) ) ( <= ( + T7 193 )( + T2 100 ) ) )
(or ( <= ( + T2 173 )  ( + T7 193 ) ) ( <= ( + T7 203 )( + T2 105 ) ) )
(or ( <= ( + T2 185 )  ( + T7 203 ) ) ( <= ( + T7 237 )( + T2 173 ) ) )
(or ( <= ( + T2 207 )  ( + T7 237 ) ) ( <= ( + T7 315 )( + T2 185 ) ) )
(or ( <= ( + T2 285 )  ( + T7 315 ) ) ( <= ( + T7 378 )( + T2 207 ) ) )
(or ( <= ( + T2 334 )  ( + T7 378 ) ) ( <= ( + T7 423 )( + T2 285 ) ) )
(or ( <= ( + T2 16 ) T8 ) ( <= ( + T8 32 ) T2 ) )
(or ( <= ( + T2 100 )  ( + T8 32 ) ) ( <= ( + T8 101 )( + T2 16 ) ) )
(or ( <= ( + T2 105 )  ( + T8 101 ) ) ( <= ( + T8 121 )( + T2 100 ) ) )
(or ( <= ( + T2 173 )  ( + T8 121 ) ) ( <= ( + T8 148 )( + T2 105 ) ) )
(or ( <= ( + T2 185 )  ( + T8 148 ) ) ( <= ( + T8 232 )( + T2 173 ) ) )
(or ( <= ( + T2 207 )  ( + T8 232 ) ) ( <= ( + T8 322 )( + T2 185 ) ) )
(or ( <= ( + T2 285 )  ( + T8 322 ) ) ( <= ( + T8 335 )( + T2 207 ) ) )
(or ( <= ( + T2 334 )  ( + T8 335 ) ) ( <= ( + T8 362 )( + T2 285 ) ) )
(or ( <= ( + T2 16 ) T9 ) ( <= ( + T9 80 ) T2 ) )
(or ( <= ( + T2 100 )  ( + T9 80 ) ) ( <= ( + T9 164 )( + T2 16 ) ) )
(or ( <= ( + T2 105 )  ( + T9 164 ) ) ( <= ( + T9 224 )( + T2 100 ) ) )
(or ( <= ( + T2 173 )  ( + T9 224 ) ) ( <= ( + T9 243 )( + T2 105 ) ) )
(or ( <= ( + T2 185 )  ( + T9 243 ) ) ( <= ( + T9 326 )( + T2 173 ) ) )
(or ( <= ( + T2 207 )  ( + T9 326 ) ) ( <= ( + T9 377 )( + T2 185 ) ) )
(or ( <= ( + T2 285 )  ( + T9 377 ) ) ( <= ( + T9 450 )( + T2 207 ) ) )
(or ( <= ( + T2 334 )  ( + T9 450 ) ) ( <= ( + T9 468 )( + T2 285 ) ) )
(or ( <= ( + T2 16 ) T10 ) ( <= ( + T10 94 ) T2 ) )
(or ( <= ( + T2 100 )  ( + T10 94 ) ) ( <= ( + T10 189 )( + T2 16 ) ) )
(or ( <= ( + T2 105 )  ( + T10 189 ) ) ( <= ( + T10 253 )( + T2 100 ) ) )
(or ( <= ( + T2 173 )  ( + T10 253 ) ) ( <= ( + T10 264 )( + T2 105 ) ) )
(or ( <= ( + T2 185 )  ( + T10 264 ) ) ( <= ( + T10 310 )( + T2 173 ) ) )
(or ( <= ( + T2 207 )  ( + T10 310 ) ) ( <= ( + T10 368 )( + T2 185 ) ) )
(or ( <= ( + T2 285 )  ( + T10 368 ) ) ( <= ( + T10 391 )( + T2 207 ) ) )
(or ( <= ( + T2 334 )  ( + T10 391 ) ) ( <= ( + T10 459 )( + T2 285 ) ) )
(or ( <= ( + T3 43 ) T4 ) ( <= ( + T4 60 ) T3 ) )
(or ( <= ( + T3 62 )  ( + T4 60 ) ) ( <= ( + T4 63 )( + T3 43 ) ) )
(or ( <= ( + T3 67 )  ( + T4 63 ) ) ( <= ( + T4 70 )( + T3 62 ) ) )
(or ( <= ( + T3 80 )  ( + T4 70 ) ) ( <= ( + T4 145 )( + T3 67 ) ) )
(or ( <= ( + T3 168 )  ( + T4 145 ) ) ( <= ( + T4 241 )( + T3 80 ) ) )
(or ( <= ( + T3 204 )  ( + T4 241 ) ) ( <= ( + T4 305 )( + T3 168 ) ) )
(or ( <= ( + T3 258 )  ( + T4 305 ) ) ( <= ( + T4 324 )( + T3 204 ) ) )
(or ( <= ( + T3 312 )  ( + T4 324 ) ) ( <= ( + T4 411 )( + T3 258 ) ) )
(or ( <= ( + T3 43 ) T5 ) ( <= ( + T5 92 ) T3 ) )
(or ( <= ( + T3 62 )  ( + T5 92 ) ) ( <= ( + T5 183 )( + T3 43 ) ) )
(or ( <= ( + T3 67 )  ( + T5 183 ) ) ( <= ( + T5 203 )( + T3 62 ) ) )
(or ( <= ( + T3 80 )  ( + T5 203 ) ) ( <= ( + T5 237 )( + T3 67 ) ) )
(or ( <= ( + T3 168 )  ( + T5 237 ) ) ( <= ( + T5 325 )( + T3 80 ) ) )
(or ( <= ( + T3 204 )  ( + T5 325 ) ) ( <= ( + T5 425 )( + T3 168 ) ) )
(or ( <= ( + T3 258 )  ( + T5 425 ) ) ( <= ( + T5 465 )( + T3 204 ) ) )
(or ( <= ( + T3 312 )  ( + T5 465 ) ) ( <= ( + T5 468 )( + T3 258 ) ) )
(or ( <= ( + T3 43 ) T6 ) ( <= ( + T6 83 ) T3 ) )
(or ( <= ( + T3 62 )  ( + T6 83 ) ) ( <= ( + T6 127 )( + T3 43 ) ) )
(or ( <= ( + T3 67 )  ( + T6 127 ) ) ( <= ( + T6 150 )( + T3 62 ) ) )
(or ( <= ( + T3 80 )  ( + T6 150 ) ) ( <= ( + T6 245 )( + T3 67 ) ) )
(or ( <= ( + T3 168 )  ( + T6 245 ) ) ( <= ( + T6 263 )( + T3 80 ) ) )
(or ( <= ( + T3 204 )  ( + T6 263 ) ) ( <= ( + T6 363 )( + T3 168 ) ) )
(or ( <= ( + T3 258 )  ( + T6 363 ) ) ( <= ( + T6 458 )( + T3 204 ) ) )
(or ( <= ( + T3 312 )  ( + T6 458 ) ) ( <= ( + T6 518 )( + T3 258 ) ) )
(or ( <= ( + T3 43 ) T7 ) ( <= ( + T7 70 ) T3 ) )
(or ( <= ( + T3 62 )  ( + T7 70 ) ) ( <= ( + T7 169 )( + T3 43 ) ) )
(or ( <= ( + T3 67 )  ( + T7 169 ) ) ( <= ( + T7 193 )( + T3 62 ) ) )
(or ( <= ( + T3 80 )  ( + T7 193 ) ) ( <= ( + T7 203 )( + T3 67 ) ) )
(or ( <= ( + T3 168 )  ( + T7 203 ) ) ( <= ( + T7 237 )( + T3 80 ) ) )
(or ( <= ( + T3 204 )  ( + T7 237 ) ) ( <= ( + T7 315 )( + T3 168 ) ) )
(or ( <= ( + T3 258 )  ( + T7 315 ) ) ( <= ( + T7 378 )( + T3 204 ) ) )
(or ( <= ( + T3 312 )  ( + T7 378 ) ) ( <= ( + T7 423 )( + T3 258 ) ) )
(or ( <= ( + T3 43 ) T8 ) ( <= ( + T8 32 ) T3 ) )
(or ( <= ( + T3 62 )  ( + T8 32 ) ) ( <= ( + T8 101 )( + T3 43 ) ) )
(or ( <= ( + T3 67 )  ( + T8 101 ) ) ( <= ( + T8 121 )( + T3 62 ) ) )
(or ( <= ( + T3 80 )  ( + T8 121 ) ) ( <= ( + T8 148 )( + T3 67 ) ) )
(or ( <= ( + T3 168 )  ( + T8 148 ) ) ( <= ( + T8 232 )( + T3 80 ) ) )
(or ( <= ( + T3 204 )  ( + T8 232 ) ) ( <= ( + T8 322 )( + T3 168 ) ) )
(or ( <= ( + T3 258 )  ( + T8 322 ) ) ( <= ( + T8 335 )( + T3 204 ) ) )
(or ( <= ( + T3 312 )  ( + T8 335 ) ) ( <= ( + T8 362 )( + T3 258 ) ) )
(or ( <= ( + T3 43 ) T9 ) ( <= ( + T9 80 ) T3 ) )
(or ( <= ( + T3 62 )  ( + T9 80 ) ) ( <= ( + T9 164 )( + T3 43 ) ) )
(or ( <= ( + T3 67 )  ( + T9 164 ) ) ( <= ( + T9 224 )( + T3 62 ) ) )
(or ( <= ( + T3 80 )  ( + T9 224 ) ) ( <= ( + T9 243 )( + T3 67 ) ) )
(or ( <= ( + T3 168 )  ( + T9 243 ) ) ( <= ( + T9 326 )( + T3 80 ) ) )
(or ( <= ( + T3 204 )  ( + T9 326 ) ) ( <= ( + T9 377 )( + T3 168 ) ) )
(or ( <= ( + T3 258 )  ( + T9 377 ) ) ( <= ( + T9 450 )( + T3 204 ) ) )
(or ( <= ( + T3 312 )  ( + T9 450 ) ) ( <= ( + T9 468 )( + T3 258 ) ) )
(or ( <= ( + T3 43 ) T10 ) ( <= ( + T10 94 ) T3 ) )
(or ( <= ( + T3 62 )  ( + T10 94 ) ) ( <= ( + T10 189 )( + T3 43 ) ) )
(or ( <= ( + T3 67 )  ( + T10 189 ) ) ( <= ( + T10 253 )( + T3 62 ) ) )
(or ( <= ( + T3 80 )  ( + T10 253 ) ) ( <= ( + T10 264 )( + T3 67 ) ) )
(or ( <= ( + T3 168 )  ( + T10 264 ) ) ( <= ( + T10 310 )( + T3 80 ) ) )
(or ( <= ( + T3 204 )  ( + T10 310 ) ) ( <= ( + T10 368 )( + T3 168 ) ) )
(or ( <= ( + T3 258 )  ( + T10 368 ) ) ( <= ( + T10 391 )( + T3 204 ) ) )
(or ( <= ( + T3 312 )  ( + T10 391 ) ) ( <= ( + T10 459 )( + T3 258 ) ) )
(or ( <= ( + T4 60 ) T5 ) ( <= ( + T5 92 ) T4 ) )
(or ( <= ( + T4 63 )  ( + T5 92 ) ) ( <= ( + T5 183 )( + T4 60 ) ) )
(or ( <= ( + T4 70 )  ( + T5 183 ) ) ( <= ( + T5 203 )( + T4 63 ) ) )
(or ( <= ( + T4 145 )  ( + T5 203 ) ) ( <= ( + T5 237 )( + T4 70 ) ) )
(or ( <= ( + T4 241 )  ( + T5 237 ) ) ( <= ( + T5 325 )( + T4 145 ) ) )
(or ( <= ( + T4 305 )  ( + T5 325 ) ) ( <= ( + T5 425 )( + T4 241 ) ) )
(or ( <= ( + T4 324 )  ( + T5 425 ) ) ( <= ( + T5 465 )( + T4 305 ) ) )
(or ( <= ( + T4 411 )  ( + T5 465 ) ) ( <= ( + T5 468 )( + T4 324 ) ) )
(or ( <= ( + T4 60 ) T6 ) ( <= ( + T6 83 ) T4 ) )
(or ( <= ( + T4 63 )  ( + T6 83 ) ) ( <= ( + T6 127 )( + T4 60 ) ) )
(or ( <= ( + T4 70 )  ( + T6 127 ) ) ( <= ( + T6 150 )( + T4 63 ) ) )
(or ( <= ( + T4 145 )  ( + T6 150 ) ) ( <= ( + T6 245 )( + T4 70 ) ) )
(or ( <= ( + T4 241 )  ( + T6 245 ) ) ( <= ( + T6 263 )( + T4 145 ) ) )
(or ( <= ( + T4 305 )  ( + T6 263 ) ) ( <= ( + T6 363 )( + T4 241 ) ) )
(or ( <= ( + T4 324 )  ( + T6 363 ) ) ( <= ( + T6 458 )( + T4 305 ) ) )
(or ( <= ( + T4 411 )  ( + T6 458 ) ) ( <= ( + T6 518 )( + T4 324 ) ) )
(or ( <= ( + T4 60 ) T7 ) ( <= ( + T7 70 ) T4 ) )
(or ( <= ( + T4 63 )  ( + T7 70 ) ) ( <= ( + T7 169 )( + T4 60 ) ) )
(or ( <= ( + T4 70 )  ( + T7 169 ) ) ( <= ( + T7 193 )( + T4 63 ) ) )
(or ( <= ( + T4 145 )  ( + T7 193 ) ) ( <= ( + T7 203 )( + T4 70 ) ) )
(or ( <= ( + T4 241 )  ( + T7 203 ) ) ( <= ( + T7 237 )( + T4 145 ) ) )
(or ( <= ( + T4 305 )  ( + T7 237 ) ) ( <= ( + T7 315 )( + T4 241 ) ) )
(or ( <= ( + T4 324 )  ( + T7 315 ) ) ( <= ( + T7 378 )( + T4 305 ) ) )
(or ( <= ( + T4 411 )  ( + T7 378 ) ) ( <= ( + T7 423 )( + T4 324 ) ) )
(or ( <= ( + T4 60 ) T8 ) ( <= ( + T8 32 ) T4 ) )
(or ( <= ( + T4 63 )  ( + T8 32 ) ) ( <= ( + T8 101 )( + T4 60 ) ) )
(or ( <= ( + T4 70 )  ( + T8 101 ) ) ( <= ( + T8 121 )( + T4 63 ) ) )
(or ( <= ( + T4 145 )  ( + T8 121 ) ) ( <= ( + T8 148 )( + T4 70 ) ) )
(or ( <= ( + T4 241 )  ( + T8 148 ) ) ( <= ( + T8 232 )( + T4 145 ) ) )
(or ( <= ( + T4 305 )  ( + T8 232 ) ) ( <= ( + T8 322 )( + T4 241 ) ) )
(or ( <= ( + T4 324 )  ( + T8 322 ) ) ( <= ( + T8 335 )( + T4 305 ) ) )
(or ( <= ( + T4 411 )  ( + T8 335 ) ) ( <= ( + T8 362 )( + T4 324 ) ) )
(or ( <= ( + T4 60 ) T9 ) ( <= ( + T9 80 ) T4 ) )
(or ( <= ( + T4 63 )  ( + T9 80 ) ) ( <= ( + T9 164 )( + T4 60 ) ) )
(or ( <= ( + T4 70 )  ( + T9 164 ) ) ( <= ( + T9 224 )( + T4 63 ) ) )
(or ( <= ( + T4 145 )  ( + T9 224 ) ) ( <= ( + T9 243 )( + T4 70 ) ) )
(or ( <= ( + T4 241 )  ( + T9 243 ) ) ( <= ( + T9 326 )( + T4 145 ) ) )
(or ( <= ( + T4 305 )  ( + T9 326 ) ) ( <= ( + T9 377 )( + T4 241 ) ) )
(or ( <= ( + T4 324 )  ( + T9 377 ) ) ( <= ( + T9 450 )( + T4 305 ) ) )
(or ( <= ( + T4 411 )  ( + T9 450 ) ) ( <= ( + T9 468 )( + T4 324 ) ) )
(or ( <= ( + T4 60 ) T10 ) ( <= ( + T10 94 ) T4 ) )
(or ( <= ( + T4 63 )  ( + T10 94 ) ) ( <= ( + T10 189 )( + T4 60 ) ) )
(or ( <= ( + T4 70 )  ( + T10 189 ) ) ( <= ( + T10 253 )( + T4 63 ) ) )
(or ( <= ( + T4 145 )  ( + T10 253 ) ) ( <= ( + T10 264 )( + T4 70 ) ) )
(or ( <= ( + T4 241 )  ( + T10 264 ) ) ( <= ( + T10 310 )( + T4 145 ) ) )
(or ( <= ( + T4 305 )  ( + T10 310 ) ) ( <= ( + T10 368 )( + T4 241 ) ) )
(or ( <= ( + T4 324 )  ( + T10 368 ) ) ( <= ( + T10 391 )( + T4 305 ) ) )
(or ( <= ( + T4 411 )  ( + T10 391 ) ) ( <= ( + T10 459 )( + T4 324 ) ) )
(or ( <= ( + T5 92 ) T6 ) ( <= ( + T6 83 ) T5 ) )
(or ( <= ( + T5 183 )  ( + T6 83 ) ) ( <= ( + T6 127 )( + T5 92 ) ) )
(or ( <= ( + T5 203 )  ( + T6 127 ) ) ( <= ( + T6 150 )( + T5 183 ) ) )
(or ( <= ( + T5 237 )  ( + T6 150 ) ) ( <= ( + T6 245 )( + T5 203 ) ) )
(or ( <= ( + T5 325 )  ( + T6 245 ) ) ( <= ( + T6 263 )( + T5 237 ) ) )
(or ( <= ( + T5 425 )  ( + T6 263 ) ) ( <= ( + T6 363 )( + T5 325 ) ) )
(or ( <= ( + T5 465 )  ( + T6 363 ) ) ( <= ( + T6 458 )( + T5 425 ) ) )
(or ( <= ( + T5 468 )  ( + T6 458 ) ) ( <= ( + T6 518 )( + T5 465 ) ) )
(or ( <= ( + T5 92 ) T7 ) ( <= ( + T7 70 ) T5 ) )
(or ( <= ( + T5 183 )  ( + T7 70 ) ) ( <= ( + T7 169 )( + T5 92 ) ) )
(or ( <= ( + T5 203 )  ( + T7 169 ) ) ( <= ( + T7 193 )( + T5 183 ) ) )
(or ( <= ( + T5 237 )  ( + T7 193 ) ) ( <= ( + T7 203 )( + T5 203 ) ) )
(or ( <= ( + T5 325 )  ( + T7 203 ) ) ( <= ( + T7 237 )( + T5 237 ) ) )
(or ( <= ( + T5 425 )  ( + T7 237 ) ) ( <= ( + T7 315 )( + T5 325 ) ) )
(or ( <= ( + T5 465 )  ( + T7 315 ) ) ( <= ( + T7 378 )( + T5 425 ) ) )
(or ( <= ( + T5 468 )  ( + T7 378 ) ) ( <= ( + T7 423 )( + T5 465 ) ) )
(or ( <= ( + T5 92 ) T8 ) ( <= ( + T8 32 ) T5 ) )
(or ( <= ( + T5 183 )  ( + T8 32 ) ) ( <= ( + T8 101 )( + T5 92 ) ) )
(or ( <= ( + T5 203 )  ( + T8 101 ) ) ( <= ( + T8 121 )( + T5 183 ) ) )
(or ( <= ( + T5 237 )  ( + T8 121 ) ) ( <= ( + T8 148 )( + T5 203 ) ) )
(or ( <= ( + T5 325 )  ( + T8 148 ) ) ( <= ( + T8 232 )( + T5 237 ) ) )
(or ( <= ( + T5 425 )  ( + T8 232 ) ) ( <= ( + T8 322 )( + T5 325 ) ) )
(or ( <= ( + T5 465 )  ( + T8 322 ) ) ( <= ( + T8 335 )( + T5 425 ) ) )
(or ( <= ( + T5 468 )  ( + T8 335 ) ) ( <= ( + T8 362 )( + T5 465 ) ) )
(or ( <= ( + T5 92 ) T9 ) ( <= ( + T9 80 ) T5 ) )
(or ( <= ( + T5 183 )  ( + T9 80 ) ) ( <= ( + T9 164 )( + T5 92 ) ) )
(or ( <= ( + T5 203 )  ( + T9 164 ) ) ( <= ( + T9 224 )( + T5 183 ) ) )
(or ( <= ( + T5 237 )  ( + T9 224 ) ) ( <= ( + T9 243 )( + T5 203 ) ) )
(or ( <= ( + T5 325 )  ( + T9 243 ) ) ( <= ( + T9 326 )( + T5 237 ) ) )
(or ( <= ( + T5 425 )  ( + T9 326 ) ) ( <= ( + T9 377 )( + T5 325 ) ) )
(or ( <= ( + T5 465 )  ( + T9 377 ) ) ( <= ( + T9 450 )( + T5 425 ) ) )
(or ( <= ( + T5 468 )  ( + T9 450 ) ) ( <= ( + T9 468 )( + T5 465 ) ) )
(or ( <= ( + T5 92 ) T10 ) ( <= ( + T10 94 ) T5 ) )
(or ( <= ( + T5 183 )  ( + T10 94 ) ) ( <= ( + T10 189 )( + T5 92 ) ) )
(or ( <= ( + T5 203 )  ( + T10 189 ) ) ( <= ( + T10 253 )( + T5 183 ) ) )
(or ( <= ( + T5 237 )  ( + T10 253 ) ) ( <= ( + T10 264 )( + T5 203 ) ) )
(or ( <= ( + T5 325 )  ( + T10 264 ) ) ( <= ( + T10 310 )( + T5 237 ) ) )
(or ( <= ( + T5 425 )  ( + T10 310 ) ) ( <= ( + T10 368 )( + T5 325 ) ) )
(or ( <= ( + T5 465 )  ( + T10 368 ) ) ( <= ( + T10 391 )( + T5 425 ) ) )
(or ( <= ( + T5 468 )  ( + T10 391 ) ) ( <= ( + T10 459 )( + T5 465 ) ) )
(or ( <= ( + T6 83 ) T7 ) ( <= ( + T7 70 ) T6 ) )
(or ( <= ( + T6 127 )  ( + T7 70 ) ) ( <= ( + T7 169 )( + T6 83 ) ) )
(or ( <= ( + T6 150 )  ( + T7 169 ) ) ( <= ( + T7 193 )( + T6 127 ) ) )
(or ( <= ( + T6 245 )  ( + T7 193 ) ) ( <= ( + T7 203 )( + T6 150 ) ) )
(or ( <= ( + T6 263 )  ( + T7 203 ) ) ( <= ( + T7 237 )( + T6 245 ) ) )
(or ( <= ( + T6 363 )  ( + T7 237 ) ) ( <= ( + T7 315 )( + T6 263 ) ) )
(or ( <= ( + T6 458 )  ( + T7 315 ) ) ( <= ( + T7 378 )( + T6 363 ) ) )
(or ( <= ( + T6 518 )  ( + T7 378 ) ) ( <= ( + T7 423 )( + T6 458 ) ) )
(or ( <= ( + T6 83 ) T8 ) ( <= ( + T8 32 ) T6 ) )
(or ( <= ( + T6 127 )  ( + T8 32 ) ) ( <= ( + T8 101 )( + T6 83 ) ) )
(or ( <= ( + T6 150 )  ( + T8 101 ) ) ( <= ( + T8 121 )( + T6 127 ) ) )
(or ( <= ( + T6 245 )  ( + T8 121 ) ) ( <= ( + T8 148 )( + T6 150 ) ) )
(or ( <= ( + T6 263 )  ( + T8 148 ) ) ( <= ( + T8 232 )( + T6 245 ) ) )
(or ( <= ( + T6 363 )  ( + T8 232 ) ) ( <= ( + T8 322 )( + T6 263 ) ) )
(or ( <= ( + T6 458 )  ( + T8 322 ) ) ( <= ( + T8 335 )( + T6 363 ) ) )
(or ( <= ( + T6 518 )  ( + T8 335 ) ) ( <= ( + T8 362 )( + T6 458 ) ) )
(or ( <= ( + T6 83 ) T9 ) ( <= ( + T9 80 ) T6 ) )
(or ( <= ( + T6 127 )  ( + T9 80 ) ) ( <= ( + T9 164 )( + T6 83 ) ) )
(or ( <= ( + T6 150 )  ( + T9 164 ) ) ( <= ( + T9 224 )( + T6 127 ) ) )
(or ( <= ( + T6 245 )  ( + T9 224 ) ) ( <= ( + T9 243 )( + T6 150 ) ) )
(or ( <= ( + T6 263 )  ( + T9 243 ) ) ( <= ( + T9 326 )( + T6 245 ) ) )
(or ( <= ( + T6 363 )  ( + T9 326 ) ) ( <= ( + T9 377 )( + T6 263 ) ) )
(or ( <= ( + T6 458 )  ( + T9 377 ) ) ( <= ( + T9 450 )( + T6 363 ) ) )
(or ( <= ( + T6 518 )  ( + T9 450 ) ) ( <= ( + T9 468 )( + T6 458 ) ) )
(or ( <= ( + T6 83 ) T10 ) ( <= ( + T10 94 ) T6 ) )
(or ( <= ( + T6 127 )  ( + T10 94 ) ) ( <= ( + T10 189 )( + T6 83 ) ) )
(or ( <= ( + T6 150 )  ( + T10 189 ) ) ( <= ( + T10 253 )( + T6 127 ) ) )
(or ( <= ( + T6 245 )  ( + T10 253 ) ) ( <= ( + T10 264 )( + T6 150 ) ) )
(or ( <= ( + T6 263 )  ( + T10 264 ) ) ( <= ( + T10 310 )( + T6 245 ) ) )
(or ( <= ( + T6 363 )  ( + T10 310 ) ) ( <= ( + T10 368 )( + T6 263 ) ) )
(or ( <= ( + T6 458 )  ( + T10 368 ) ) ( <= ( + T10 391 )( + T6 363 ) ) )
(or ( <= ( + T6 518 )  ( + T10 391 ) ) ( <= ( + T10 459 )( + T6 458 ) ) )
(or ( <= ( + T7 70 ) T8 ) ( <= ( + T8 32 ) T7 ) )
(or ( <= ( + T7 169 )  ( + T8 32 ) ) ( <= ( + T8 101 )( + T7 70 ) ) )
(or ( <= ( + T7 193 )  ( + T8 101 ) ) ( <= ( + T8 121 )( + T7 169 ) ) )
(or ( <= ( + T7 203 )  ( + T8 121 ) ) ( <= ( + T8 148 )( + T7 193 ) ) )
(or ( <= ( + T7 237 )  ( + T8 148 ) ) ( <= ( + T8 232 )( + T7 203 ) ) )
(or ( <= ( + T7 315 )  ( + T8 232 ) ) ( <= ( + T8 322 )( + T7 237 ) ) )
(or ( <= ( + T7 378 )  ( + T8 322 ) ) ( <= ( + T8 335 )( + T7 315 ) ) )
(or ( <= ( + T7 423 )  ( + T8 335 ) ) ( <= ( + T8 362 )( + T7 378 ) ) )
(or ( <= ( + T7 70 ) T9 ) ( <= ( + T9 80 ) T7 ) )
(or ( <= ( + T7 169 )  ( + T9 80 ) ) ( <= ( + T9 164 )( + T7 70 ) ) )
(or ( <= ( + T7 193 )  ( + T9 164 ) ) ( <= ( + T9 224 )( + T7 169 ) ) )
(or ( <= ( + T7 203 )  ( + T9 224 ) ) ( <= ( + T9 243 )( + T7 193 ) ) )
(or ( <= ( + T7 237 )  ( + T9 243 ) ) ( <= ( + T9 326 )( + T7 203 ) ) )
(or ( <= ( + T7 315 )  ( + T9 326 ) ) ( <= ( + T9 377 )( + T7 237 ) ) )
(or ( <= ( + T7 378 )  ( + T9 377 ) ) ( <= ( + T9 450 )( + T7 315 ) ) )
(or ( <= ( + T7 423 )  ( + T9 450 ) ) ( <= ( + T9 468 )( + T7 378 ) ) )
(or ( <= ( + T7 70 ) T10 ) ( <= ( + T10 94 ) T7 ) )
(or ( <= ( + T7 169 )  ( + T10 94 ) ) ( <= ( + T10 189 )( + T7 70 ) ) )
(or ( <= ( + T7 193 )  ( + T10 189 ) ) ( <= ( + T10 253 )( + T7 169 ) ) )
(or ( <= ( + T7 203 )  ( + T10 253 ) ) ( <= ( + T10 264 )( + T7 193 ) ) )
(or ( <= ( + T7 237 )  ( + T10 264 ) ) ( <= ( + T10 310 )( + T7 203 ) ) )
(or ( <= ( + T7 315 )  ( + T10 310 ) ) ( <= ( + T10 368 )( + T7 237 ) ) )
(or ( <= ( + T7 378 )  ( + T10 368 ) ) ( <= ( + T10 391 )( + T7 315 ) ) )
(or ( <= ( + T7 423 )  ( + T10 391 ) ) ( <= ( + T10 459 )( + T7 378 ) ) )
(or ( <= ( + T8 32 ) T9 ) ( <= ( + T9 80 ) T8 ) )
(or ( <= ( + T8 101 )  ( + T9 80 ) ) ( <= ( + T9 164 )( + T8 32 ) ) )
(or ( <= ( + T8 121 )  ( + T9 164 ) ) ( <= ( + T9 224 )( + T8 101 ) ) )
(or ( <= ( + T8 148 )  ( + T9 224 ) ) ( <= ( + T9 243 )( + T8 121 ) ) )
(or ( <= ( + T8 232 )  ( + T9 243 ) ) ( <= ( + T9 326 )( + T8 148 ) ) )
(or ( <= ( + T8 322 )  ( + T9 326 ) ) ( <= ( + T9 377 )( + T8 232 ) ) )
(or ( <= ( + T8 335 )  ( + T9 377 ) ) ( <= ( + T9 450 )( + T8 322 ) ) )
(or ( <= ( + T8 362 )  ( + T9 450 ) ) ( <= ( + T9 468 )( + T8 335 ) ) )
(or ( <= ( + T8 32 ) T10 ) ( <= ( + T10 94 ) T8 ) )
(or ( <= ( + T8 101 )  ( + T10 94 ) ) ( <= ( + T10 189 )( + T8 32 ) ) )
(or ( <= ( + T8 121 )  ( + T10 189 ) ) ( <= ( + T10 253 )( + T8 101 ) ) )
(or ( <= ( + T8 148 )  ( + T10 253 ) ) ( <= ( + T10 264 )( + T8 121 ) ) )
(or ( <= ( + T8 232 )  ( + T10 264 ) ) ( <= ( + T10 310 )( + T8 148 ) ) )
(or ( <= ( + T8 322 )  ( + T10 310 ) ) ( <= ( + T10 368 )( + T8 232 ) ) )
(or ( <= ( + T8 335 )  ( + T10 368 ) ) ( <= ( + T10 391 )( + T8 322 ) ) )
(or ( <= ( + T8 362 )  ( + T10 391 ) ) ( <= ( + T10 459 )( + T8 335 ) ) )
(or ( <= ( + T9 80 ) T10 ) ( <= ( + T10 94 ) T9 ) )
(or ( <= ( + T9 164 )  ( + T10 94 ) ) ( <= ( + T10 189 )( + T9 80 ) ) )
(or ( <= ( + T9 224 )  ( + T10 189 ) ) ( <= ( + T10 253 )( + T9 164 ) ) )
(or ( <= ( + T9 243 )  ( + T10 253 ) ) ( <= ( + T10 264 )( + T9 224 ) ) )
(or ( <= ( + T9 326 )  ( + T10 264 ) ) ( <= ( + T10 310 )( + T9 243 ) ) )
(or ( <= ( + T9 377 )  ( + T10 310 ) ) ( <= ( + T10 368 )( + T9 326 ) ) )
(or ( <= ( + T9 450 )  ( + T10 368 ) ) ( <= ( + T10 391 )( + T9 377 ) ) )
(or ( <= ( + T9 468 )  ( + T10 391 ) ) ( <= ( + T10 459 )( + T9 450 ) ) )
( <= ( + T1 448 ) Z)
( <= ( + T2 334 ) Z)
( <= ( + T3 312 ) Z)
( <= ( + T4 411 ) Z)
( <= ( + T5 468 ) Z)
( <= ( + T6 518 ) Z)
( <= ( + T7 423 ) Z)
( <= ( + T8 362 ) Z)
( <= ( + T9 468 ) Z)
( <= ( + T10 459 ) Z)
( >= T1 0 )
( >= T2 0 )
( >= T3 0 )
( >= T4 0 )
( >= T5 0 )
( >= T6 0 )
( >= T7 0 )
( >= T8 0 )
( >= T9 0 )
( >= T10 0 )
) )
(minimize Z)
(check-sat)